500
    1    60    50
    2    28    18
    3    36    26
    4    11     1
    5    36    26
    6    28    18
    7    39    29
    8    54    44
    9    24    14
   10    56    46
   11    28    18
   12    25    15
   13    11     1
   14    26    16
   15    40    30
   16    12     2
   17    53    43
   18    57    47
   19    26    16
   20    13     3
   21    32    22
   22    31    21
   23    57    47
   24    59    49
   25    20    10
   26    19     9
   27    42    32
   28    30    20
   29    43    33
   30    41    31
   31    29    19
   32    54    44
   33    53    43
   34    42    32
   35    22    12
   36    34    24
   37    11     1
   38    33    23
   39    34    24
   40    18     8
   41    17     7
   42    60    50
   43    30    20
   44    21    11
   45    56    46
   46    52    42
   47    35    25
   48    48    38
   49    11     1
   50    11     1
   51    52    42
   52    53    43
   53    18     8
   54    22    12
   55    48    38
   56    18     8
   57    48    38
   58    58    48
   59    35    25
   60    47    37
   61    60    50
   62    43    33
   63    16     6
   64    48    38
   65    26    16
   66    12     2
   67    35    25
   68    29    19
   69    14     4
   70    48    38
   71    51    41
   72    31    21
   73    32    22
   74    31    21
   75    41    31
   76    45    35
   77    54    44
   78    21    11
   79    49    39
   80    22    12
   81    37    27
   82    24    14
   83    48    38
   84    54    44
   85    16     6
   86    46    36
   87    50    40
   88    57    47
   89    13     3
   90    47    37
   91    19     9
   92    33    23
   93    12     2
   94    35    25
   95    50    40
   96    29    19
   97    29    19
   98    35    25
   99    22    12
  100    24    14
  101    13     3
  102    57    47
  103    34    24
  104    17     7
  105    41    31
  106    55    45
  107    54    44
  108    31    21
  109    23    13
  110    60    50
  111    20    10
  112    28    18
  113    43    33
  114    25    15
  115    29    19
  116    52    42
  117    48    38
  118    16     6
  119    46    36
  120    29    19
  121    39    29
  122    56    46
  123    43    33
  124    50    40
  125    16     6
  126    14     4
  127    31    21
  128    24    14
  129    52    42
  130    19     9
  131    16     6
  132    11     1
  133    49    39
  134    41    31
  135    25    15
  136    52    42
  137    14     4
  138    21    11
  139    12     2
  140    26    16
  141    28    18
  142    15     5
  143    24    14
  144    11     1
  145    60    50
  146    49    39
  147    13     3
  148    38    28
  149    46    36
  150    23    13
  151    45    35
  152    42    32
  153    47    37
  154    46    36
  155    41    31
  156    51    41
  157    57    47
  158    40    30
  159    23    13
  160    32    22
  161    26    16
  162    37    27
  163    24    14
  164    14     4
  165    49    39
  166    20    10
  167    16     6
  168    52    42
  169    32    22
  170    31    21
  171    16     6
  172    25    15
  173    22    12
  174    22    12
  175    20    10
  176    53    43
  177    12     2
  178    50    40
  179    11     1
  180    39    29
  181    47    37
  182    34    24
  183    17     7
  184    18     8
  185    27    17
  186    14     4
  187    50    40
  188    41    31
  189    40    30
  190    30    20
  191    19     9
  192    21    11
  193    49    39
  194    47    37
  195    37    27
  196    38    28
  197    60    50
  198    37    27
  199    34    24
  200    27    17
  201    41    31
  202    49    39
  203    54    44
  204    60    50
  205    54    44
  206    43    33
  207    56    46
  208    22    12
  209    19     9
  210    29    19
  211    48    38
  212    11     1
  213    23    13
  214    38    28
  215    15     5
  216    45    35
  217    53    43
  218    20    10
  219    13     3
  220    51    41
  221    45    35
  222    22    12
  223    27    17
  224    36    26
  225    59    49
  226    50    40
  227    41    31
  228    44    34
  229    57    47
  230    50    40
  231    49    39
  232    29    19
  233    25    15
  234    47    37
  235    55    45
  236    21    11
  237    59    49
  238    36    26
  239    57    47
  240    25    15
  241    48    38
  242    44    34
  243    59    49
  244    29    19
  245    52    42
  246    54    44
  247    17     7
  248    15     5
  249    21    11
  250    24    14
  251    51    41
  252    37    27
  253    20    10
  254    51    41
  255    34    24
  256    40    30
  257    29    19
  258    34    24
  259    25    15
  260    21    11
  261    44    34
  262    35    25
  263    59    49
  264    25    15
  265    21    11
  266    18     8
  267    16     6
  268    25    15
  269    25    15
  270    58    48
  271    28    18
  272    24    14
  273    57    47
  274    59    49
  275    17     7
  276    16     6
  277    44    34
  278    13     3
  279    14     4
  280    30    20
  281    39    29
  282    14     4
  283    41    31
  284    29    19
  285    35    25
  286    40    30
  287    57    47
  288    48    38
  289    45    35
  290    18     8
  291    50    40
  292    55    45
  293    44    34
  294    13     3
  295    29    19
  296    17     7
  297    21    11
  298    37    27
  299    40    30
  300    17     7
  301    55    45
  302    27    17
  303    59    49
  304    49    39
  305    46    36
  306    18     8
  307    22    12
  308    22    12
  309    22    12
  310    11     1
  311    46    36
  312    30    20
  313    34    24
  314    54    44
  315    13     3
  316    37    27
  317    16     6
  318    50    40
  319    41    31
  320    25    15
  321    37    27
  322    57    47
  323    51    41
  324    32    22
  325    38    28
  326    52    42
  327    56    46
  328    55    45
  329    49    39
  330    21    11
  331    38    28
  332    53    43
  333    37    27
  334    29    19
  335    18     8
  336    44    34
  337    60    50
  338    14     4
  339    39    29
  340    13     3
  341    25    15
  342    27    17
  343    56    46
  344    48    38
  345    19     9
  346    46    36
  347    52    42
  348    12     2
  349    23    13
  350    37    27
  351    15     5
  352    12     2
  353    32    22
  354    29    19
  355    53    43
  356    34    24
  357    12     2
  358    52    42
  359    50    40
  360    41    31
  361    27    17
  362    37    27
  363    19     9
  364    60    50
  365    38    28
  366    21    11
  367    34    24
  368    41    31
  369    49    39
  370    35    25
  371    51    41
  372    46    36
  373    52    42
  374    13     3
  375    57    47
  376    18     8
  377    40    30
  378    30    20
  379    19     9
  380    49    39
  381    58    48
  382    23    13
  383    55    45
  384    46    36
  385    12     2
  386    46    36
  387    38    28
  388    60    50
  389    31    21
  390    50    40
  391    18     8
  392    36    26
  393    46    36
  394    41    31
  395    44    34
  396    24    14
  397    19     9
  398    39    29
  399    55    45
  400    22    12
  401    39    29
  402    18     8
  403    43    33
  404    44    34
  405    11     1
  406    52    42
  407    59    49
  408    54    44
  409    35    25
  410    56    46
  411    57    47
  412    39    29
  413    26    16
  414    41    31
  415    36    26
  416    30    20
  417    31    21
  418    12     2
  419    19     9
  420    29    19
  421    48    38
  422    49    39
  423    38    28
  424    33    23
  425    53    43
  426    57    47
  427    57    47
  428    17     7
  429    46    36
  430    32    22
  431    33    23
  432    13     3
  433    12     2
  434    47    37
  435    42    32
  436    13     3
  437    17     7
  438    24    14
  439    44    34
  440    43    33
  441    18     8
  442    38    28
  443    33    23
  444    35    25
  445    57    47
  446    24    14
  447    22    12
  448    21    11
  449    28    18
  450    47    37
  451    32    22
  452    24    14
  453    41    31
  454    28    18
  455    47    37
  456    50    40
  457    53    43
  458    11     1
  459    19     9
  460    53    43
  461    21    11
  462    32    22
  463    52    42
  464    19     9
  465    55    45
  466    50    40
  467    22    12
  468    26    16
  469    31    21
  470    42    32
  471    12     2
  472    19     9
  473    11     1
  474    51    41
  475    17     7
  476    13     3
  477    39    29
  478    24    14
  479    47    37
  480    47    37
  481    27    17
  482    27    17
  483    59    49
  484    45    35
  485    43    33
  486    56    46
  487    27    17
  488    54    44
  489    40    30
  490    26    16
  491    23    13
  492    42    32
  493    24    14
  494    24    14
  495    18     8
  496    47    37
  497    54    44
  498    31    21
  499    58    48
  500    26    16
4190
